lp-files/instances/small/instance12_16.lp
Minimize
z: 64 x1 + 70 x2 + 25 x3 + 42 x4 + 40 x5 + 48 x6 + 54 x7 + 21 x8 + 72 x9 + 30 x10 + 20 x11 + 35 x12 + 27 x13 + 18 x14 + 28 x15 + 72 x16
Subject To
a1a1: y1,1 - x1 <= 0
a1a2: y1,2 - x2 <= 0
a1a3: y1,3 - x3 <= 0
a1a4: y1,4 - x4 <= 0
a1a5: y1,5 - x5 <= 0
a1a6: y1,6 - x6 <= 0
a1a7: y1,7 - x7 <= 0
a1a8: y1,8 - x8 <= 0
a1a9: y1,9 - x9 <= 0
a1a10: y1,10 - x10 <= 0
a1a11: y1,11 - x11 <= 0
a1a12: y1,12 - x12 <= 0
a1a13: y1,13 - x13 <= 0
a1a14: y1,14 - x14 <= 0
a1a15: y1,15 - x15 <= 0
a1a16: y1,16 - x16 <= 0
a2a1: y2,1 - x1 <= 0
a2a2: y2,2 - x2 <= 0
a2a3: y2,3 - x3 <= 0
a2a4: y2,4 - x4 <= 0
a2a5: y2,5 - x5 <= 0
a2a6: y2,6 - x6 <= 0
a2a7: y2,7 - x7 <= 0
a2a8: y2,8 - x8 <= 0
a2a9: y2,9 - x9 <= 0
a2a10: y2,10 - x10 <= 0
a2a11: y2,11 - x11 <= 0
a2a12: y2,12 - x12 <= 0
a2a13: y2,13 - x13 <= 0
a2a14: y2,14 - x14 <= 0
a2a15: y2,15 - x15 <= 0
a2a16: y2,16 - x16 <= 0
a3a1: y3,1 - x1 <= 0
a3a2: y3,2 - x2 <= 0
a3a3: y3,3 - x3 <= 0
a3a4: y3,4 - x4 <= 0
a3a5: y3,5 - x5 <= 0
a3a6: y3,6 - x6 <= 0
a3a7: y3,7 - x7 <= 0
a3a8: y3,8 - x8 <= 0
a3a9: y3,9 - x9 <= 0
a3a10: y3,10 - x10 <= 0
a3a11: y3,11 - x11 <= 0
a3a12: y3,12 - x12 <= 0
a3a13: y3,13 - x13 <= 0
a3a14: y3,14 - x14 <= 0
a3a15: y3,15 - x15 <= 0
a3a16: y3,16 - x16 <= 0
a4a1: y4,1 - x1 <= 0
a4a2: y4,2 - x2 <= 0
a4a3: y4,3 - x3 <= 0
a4a4: y4,4 - x4 <= 0
a4a5: y4,5 - x5 <= 0
a4a6: y4,6 - x6 <= 0
a4a7: y4,7 - x7 <= 0
a4a8: y4,8 - x8 <= 0
a4a9: y4,9 - x9 <= 0
a4a10: y4,10 - x10 <= 0
a4a11: y4,11 - x11 <= 0
a4a12: y4,12 - x12 <= 0
a4a13: y4,13 - x13 <= 0
a4a14: y4,14 - x14 <= 0
a4a15: y4,15 - x15 <= 0
a4a16: y4,16 - x16 <= 0
a5a1: y5,1 - x1 <= 0
a5a2: y5,2 - x2 <= 0
a5a3: y5,3 - x3 <= 0
a5a4: y5,4 - x4 <= 0
a5a5: y5,5 - x5 <= 0
a5a6: y5,6 - x6 <= 0
a5a7: y5,7 - x7 <= 0
a5a8: y5,8 - x8 <= 0
a5a9: y5,9 - x9 <= 0
a5a10: y5,10 - x10 <= 0
a5a11: y5,11 - x11 <= 0
a5a12: y5,12 - x12 <= 0
a5a13: y5,13 - x13 <= 0
a5a14: y5,14 - x14 <= 0
a5a15: y5,15 - x15 <= 0
a5a16: y5,16 - x16 <= 0
a6a1: y6,1 - x1 <= 0
a6a2: y6,2 - x2 <= 0
a6a3: y6,3 - x3 <= 0
a6a4: y6,4 - x4 <= 0
a6a5: y6,5 - x5 <= 0
a6a6: y6,6 - x6 <= 0
a6a7: y6,7 - x7 <= 0
a6a8: y6,8 - x8 <= 0
a6a9: y6,9 - x9 <= 0
a6a10: y6,10 - x10 <= 0
a6a11: y6,11 - x11 <= 0
a6a12: y6,12 - x12 <= 0
a6a13: y6,13 - x13 <= 0
a6a14: y6,14 - x14 <= 0
a6a15: y6,15 - x15 <= 0
a6a16: y6,16 - x16 <= 0
a7a1: y7,1 - x1 <= 0
a7a2: y7,2 - x2 <= 0
a7a3: y7,3 - x3 <= 0
a7a4: y7,4 - x4 <= 0
a7a5: y7,5 - x5 <= 0
a7a6: y7,6 - x6 <= 0
a7a7: y7,7 - x7 <= 0
a7a8: y7,8 - x8 <= 0
a7a9: y7,9 - x9 <= 0
a7a10: y7,10 - x10 <= 0
a7a11: y7,11 - x11 <= 0
a7a12: y7,12 - x12 <= 0
a7a13: y7,13 - x13 <= 0
a7a14: y7,14 - x14 <= 0
a7a15: y7,15 - x15 <= 0
a7a16: y7,16 - x16 <= 0
a8a1: y8,1 - x1 <= 0
a8a2: y8,2 - x2 <= 0
a8a3: y8,3 - x3 <= 0
a8a4: y8,4 - x4 <= 0
a8a5: y8,5 - x5 <= 0
a8a6: y8,6 - x6 <= 0
a8a7: y8,7 - x7 <= 0
a8a8: y8,8 - x8 <= 0
a8a9: y8,9 - x9 <= 0
a8a10: y8,10 - x10 <= 0
a8a11: y8,11 - x11 <= 0
a8a12: y8,12 - x12 <= 0
a8a13: y8,13 - x13 <= 0
a8a14: y8,14 - x14 <= 0
a8a15: y8,15 - x15 <= 0
a8a16: y8,16 - x16 <= 0
a9a1: y9,1 - x1 <= 0
a9a2: y9,2 - x2 <= 0
a9a3: y9,3 - x3 <= 0
a9a4: y9,4 - x4 <= 0
a9a5: y9,5 - x5 <= 0
a9a6: y9,6 - x6 <= 0
a9a7: y9,7 - x7 <= 0
a9a8: y9,8 - x8 <= 0
a9a9: y9,9 - x9 <= 0
a9a10: y9,10 - x10 <= 0
a9a11: y9,11 - x11 <= 0
a9a12: y9,12 - x12 <= 0
a9a13: y9,13 - x13 <= 0
a9a14: y9,14 - x14 <= 0
a9a15: y9,15 - x15 <= 0
a9a16: y9,16 - x16 <= 0
a10a1: y10,1 - x1 <= 0
a10a2: y10,2 - x2 <= 0
a10a3: y10,3 - x3 <= 0
a10a4: y10,4 - x4 <= 0
a10a5: y10,5 - x5 <= 0
a10a6: y10,6 - x6 <= 0
a10a7: y10,7 - x7 <= 0
a10a8: y10,8 - x8 <= 0
a10a9: y10,9 - x9 <= 0
a10a10: y10,10 - x10 <= 0
a10a11: y10,11 - x11 <= 0
a10a12: y10,12 - x12 <= 0
a10a13: y10,13 - x13 <= 0
a10a14: y10,14 - x14 <= 0
a10a15: y10,15 - x15 <= 0
a10a16: y10,16 - x16 <= 0
a11a1: y11,1 - x1 <= 0
a11a2: y11,2 - x2 <= 0
a11a3: y11,3 - x3 <= 0
a11a4: y11,4 - x4 <= 0
a11a5: y11,5 - x5 <= 0
a11a6: y11,6 - x6 <= 0
a11a7: y11,7 - x7 <= 0
a11a8: y11,8 - x8 <= 0
a11a9: y11,9 - x9 <= 0
a11a10: y11,10 - x10 <= 0
a11a11: y11,11 - x11 <= 0
a11a12: y11,12 - x12 <= 0
a11a13: y11,13 - x13 <= 0
a11a14: y11,14 - x14 <= 0
a11a15: y11,15 - x15 <= 0
a11a16: y11,16 - x16 <= 0
a12a1: y12,1 - x1 <= 0
a12a2: y12,2 - x2 <= 0
a12a3: y12,3 - x3 <= 0
a12a4: y12,4 - x4 <= 0
a12a5: y12,5 - x5 <= 0
a12a6: y12,6 - x6 <= 0
a12a7: y12,7 - x7 <= 0
a12a8: y12,8 - x8 <= 0
a12a9: y12,9 - x9 <= 0
a12a10: y12,10 - x10 <= 0
a12a11: y12,11 - x11 <= 0
a12a12: y12,12 - x12 <= 0
a12a13: y12,13 - x13 <= 0
a12a14: y12,14 - x14 <= 0
a12a15: y12,15 - x15 <= 0
a12a16: y12,16 - x16 <= 0
b1b6b1: y1,1 + y6,1 <= 1
b1b6b2: y1,2 + y6,2 <= 1
b1b6b3: y1,3 + y6,3 <= 1
b1b6b4: y1,4 + y6,4 <= 1
b1b6b5: y1,5 + y6,5 <= 1
b1b6b6: y1,6 + y6,6 <= 1
b1b6b7: y1,7 + y6,7 <= 1
b1b6b8: y1,8 + y6,8 <= 1
b1b6b9: y1,9 + y6,9 <= 1
b1b6b10: y1,10 + y6,10 <= 1
b1b6b11: y1,11 + y6,11 <= 1
b1b6b12: y1,12 + y6,12 <= 1
b1b6b13: y1,13 + y6,13 <= 1
b1b6b14: y1,14 + y6,14 <= 1
b1b6b15: y1,15 + y6,15 <= 1
b1b6b16: y1,16 + y6,16 <= 1
b2b4b1: y2,1 + y4,1 <= 1
b2b4b2: y2,2 + y4,2 <= 1
b2b4b3: y2,3 + y4,3 <= 1
b2b4b4: y2,4 + y4,4 <= 1
b2b4b5: y2,5 + y4,5 <= 1
b2b4b6: y2,6 + y4,6 <= 1
b2b4b7: y2,7 + y4,7 <= 1
b2b4b8: y2,8 + y4,8 <= 1
b2b4b9: y2,9 + y4,9 <= 1
b2b4b10: y2,10 + y4,10 <= 1
b2b4b11: y2,11 + y4,11 <= 1
b2b4b12: y2,12 + y4,12 <= 1
b2b4b13: y2,13 + y4,13 <= 1
b2b4b14: y2,14 + y4,14 <= 1
b2b4b15: y2,15 + y4,15 <= 1
b2b4b16: y2,16 + y4,16 <= 1
b2b12b1: y2,1 + y12,1 <= 1
b2b12b2: y2,2 + y12,2 <= 1
b2b12b3: y2,3 + y12,3 <= 1
b2b12b4: y2,4 + y12,4 <= 1
b2b12b5: y2,5 + y12,5 <= 1
b2b12b6: y2,6 + y12,6 <= 1
b2b12b7: y2,7 + y12,7 <= 1
b2b12b8: y2,8 + y12,8 <= 1
b2b12b9: y2,9 + y12,9 <= 1
b2b12b10: y2,10 + y12,10 <= 1
b2b12b11: y2,11 + y12,11 <= 1
b2b12b12: y2,12 + y12,12 <= 1
b2b12b13: y2,13 + y12,13 <= 1
b2b12b14: y2,14 + y12,14 <= 1
b2b12b15: y2,15 + y12,15 <= 1
b2b12b16: y2,16 + y12,16 <= 1
b3b4b1: y3,1 + y4,1 <= 1
b3b4b2: y3,2 + y4,2 <= 1
b3b4b3: y3,3 + y4,3 <= 1
b3b4b4: y3,4 + y4,4 <= 1
b3b4b5: y3,5 + y4,5 <= 1
b3b4b6: y3,6 + y4,6 <= 1
b3b4b7: y3,7 + y4,7 <= 1
b3b4b8: y3,8 + y4,8 <= 1
b3b4b9: y3,9 + y4,9 <= 1
b3b4b10: y3,10 + y4,10 <= 1
b3b4b11: y3,11 + y4,11 <= 1
b3b4b12: y3,12 + y4,12 <= 1
b3b4b13: y3,13 + y4,13 <= 1
b3b4b14: y3,14 + y4,14 <= 1
b3b4b15: y3,15 + y4,15 <= 1
b3b4b16: y3,16 + y4,16 <= 1
b3b12b1: y3,1 + y12,1 <= 1
b3b12b2: y3,2 + y12,2 <= 1
b3b12b3: y3,3 + y12,3 <= 1
b3b12b4: y3,4 + y12,4 <= 1
b3b12b5: y3,5 + y12,5 <= 1
b3b12b6: y3,6 + y12,6 <= 1
b3b12b7: y3,7 + y12,7 <= 1
b3b12b8: y3,8 + y12,8 <= 1
b3b12b9: y3,9 + y12,9 <= 1
b3b12b10: y3,10 + y12,10 <= 1
b3b12b11: y3,11 + y12,11 <= 1
b3b12b12: y3,12 + y12,12 <= 1
b3b12b13: y3,13 + y12,13 <= 1
b3b12b14: y3,14 + y12,14 <= 1
b3b12b15: y3,15 + y12,15 <= 1
b3b12b16: y3,16 + y12,16 <= 1
b4b2b1: y4,1 + y2,1 <= 1
b4b2b2: y4,2 + y2,2 <= 1
b4b2b3: y4,3 + y2,3 <= 1
b4b2b4: y4,4 + y2,4 <= 1
b4b2b5: y4,5 + y2,5 <= 1
b4b2b6: y4,6 + y2,6 <= 1
b4b2b7: y4,7 + y2,7 <= 1
b4b2b8: y4,8 + y2,8 <= 1
b4b2b9: y4,9 + y2,9 <= 1
b4b2b10: y4,10 + y2,10 <= 1
b4b2b11: y4,11 + y2,11 <= 1
b4b2b12: y4,12 + y2,12 <= 1
b4b2b13: y4,13 + y2,13 <= 1
b4b2b14: y4,14 + y2,14 <= 1
b4b2b15: y4,15 + y2,15 <= 1
b4b2b16: y4,16 + y2,16 <= 1
b4b3b1: y4,1 + y3,1 <= 1
b4b3b2: y4,2 + y3,2 <= 1
b4b3b3: y4,3 + y3,3 <= 1
b4b3b4: y4,4 + y3,4 <= 1
b4b3b5: y4,5 + y3,5 <= 1
b4b3b6: y4,6 + y3,6 <= 1
b4b3b7: y4,7 + y3,7 <= 1
b4b3b8: y4,8 + y3,8 <= 1
b4b3b9: y4,9 + y3,9 <= 1
b4b3b10: y4,10 + y3,10 <= 1
b4b3b11: y4,11 + y3,11 <= 1
b4b3b12: y4,12 + y3,12 <= 1
b4b3b13: y4,13 + y3,13 <= 1
b4b3b14: y4,14 + y3,14 <= 1
b4b3b15: y4,15 + y3,15 <= 1
b4b3b16: y4,16 + y3,16 <= 1
b4b8b1: y4,1 + y8,1 <= 1
b4b8b2: y4,2 + y8,2 <= 1
b4b8b3: y4,3 + y8,3 <= 1
b4b8b4: y4,4 + y8,4 <= 1
b4b8b5: y4,5 + y8,5 <= 1
b4b8b6: y4,6 + y8,6 <= 1
b4b8b7: y4,7 + y8,7 <= 1
b4b8b8: y4,8 + y8,8 <= 1
b4b8b9: y4,9 + y8,9 <= 1
b4b8b10: y4,10 + y8,10 <= 1
b4b8b11: y4,11 + y8,11 <= 1
b4b8b12: y4,12 + y8,12 <= 1
b4b8b13: y4,13 + y8,13 <= 1
b4b8b14: y4,14 + y8,14 <= 1
b4b8b15: y4,15 + y8,15 <= 1
b4b8b16: y4,16 + y8,16 <= 1
b4b9b1: y4,1 + y9,1 <= 1
b4b9b2: y4,2 + y9,2 <= 1
b4b9b3: y4,3 + y9,3 <= 1
b4b9b4: y4,4 + y9,4 <= 1
b4b9b5: y4,5 + y9,5 <= 1
b4b9b6: y4,6 + y9,6 <= 1
b4b9b7: y4,7 + y9,7 <= 1
b4b9b8: y4,8 + y9,8 <= 1
b4b9b9: y4,9 + y9,9 <= 1
b4b9b10: y4,10 + y9,10 <= 1
b4b9b11: y4,11 + y9,11 <= 1
b4b9b12: y4,12 + y9,12 <= 1
b4b9b13: y4,13 + y9,13 <= 1
b4b9b14: y4,14 + y9,14 <= 1
b4b9b15: y4,15 + y9,15 <= 1
b4b9b16: y4,16 + y9,16 <= 1
b4b10b1: y4,1 + y10,1 <= 1
b4b10b2: y4,2 + y10,2 <= 1
b4b10b3: y4,3 + y10,3 <= 1
b4b10b4: y4,4 + y10,4 <= 1
b4b10b5: y4,5 + y10,5 <= 1
b4b10b6: y4,6 + y10,6 <= 1
b4b10b7: y4,7 + y10,7 <= 1
b4b10b8: y4,8 + y10,8 <= 1
b4b10b9: y4,9 + y10,9 <= 1
b4b10b10: y4,10 + y10,10 <= 1
b4b10b11: y4,11 + y10,11 <= 1
b4b10b12: y4,12 + y10,12 <= 1
b4b10b13: y4,13 + y10,13 <= 1
b4b10b14: y4,14 + y10,14 <= 1
b4b10b15: y4,15 + y10,15 <= 1
b4b10b16: y4,16 + y10,16 <= 1
b4b11b1: y4,1 + y11,1 <= 1
b4b11b2: y4,2 + y11,2 <= 1
b4b11b3: y4,3 + y11,3 <= 1
b4b11b4: y4,4 + y11,4 <= 1
b4b11b5: y4,5 + y11,5 <= 1
b4b11b6: y4,6 + y11,6 <= 1
b4b11b7: y4,7 + y11,7 <= 1
b4b11b8: y4,8 + y11,8 <= 1
b4b11b9: y4,9 + y11,9 <= 1
b4b11b10: y4,10 + y11,10 <= 1
b4b11b11: y4,11 + y11,11 <= 1
b4b11b12: y4,12 + y11,12 <= 1
b4b11b13: y4,13 + y11,13 <= 1
b4b11b14: y4,14 + y11,14 <= 1
b4b11b15: y4,15 + y11,15 <= 1
b4b11b16: y4,16 + y11,16 <= 1
b5b9b1: y5,1 + y9,1 <= 1
b5b9b2: y5,2 + y9,2 <= 1
b5b9b3: y5,3 + y9,3 <= 1
b5b9b4: y5,4 + y9,4 <= 1
b5b9b5: y5,5 + y9,5 <= 1
b5b9b6: y5,6 + y9,6 <= 1
b5b9b7: y5,7 + y9,7 <= 1
b5b9b8: y5,8 + y9,8 <= 1
b5b9b9: y5,9 + y9,9 <= 1
b5b9b10: y5,10 + y9,10 <= 1
b5b9b11: y5,11 + y9,11 <= 1
b5b9b12: y5,12 + y9,12 <= 1
b5b9b13: y5,13 + y9,13 <= 1
b5b9b14: y5,14 + y9,14 <= 1
b5b9b15: y5,15 + y9,15 <= 1
b5b9b16: y5,16 + y9,16 <= 1
b6b1b1: y6,1 + y1,1 <= 1
b6b1b2: y6,2 + y1,2 <= 1
b6b1b3: y6,3 + y1,3 <= 1
b6b1b4: y6,4 + y1,4 <= 1
b6b1b5: y6,5 + y1,5 <= 1
b6b1b6: y6,6 + y1,6 <= 1
b6b1b7: y6,7 + y1,7 <= 1
b6b1b8: y6,8 + y1,8 <= 1
b6b1b9: y6,9 + y1,9 <= 1
b6b1b10: y6,10 + y1,10 <= 1
b6b1b11: y6,11 + y1,11 <= 1
b6b1b12: y6,12 + y1,12 <= 1
b6b1b13: y6,13 + y1,13 <= 1
b6b1b14: y6,14 + y1,14 <= 1
b6b1b15: y6,15 + y1,15 <= 1
b6b1b16: y6,16 + y1,16 <= 1
b7b8b1: y7,1 + y8,1 <= 1
b7b8b2: y7,2 + y8,2 <= 1
b7b8b3: y7,3 + y8,3 <= 1
b7b8b4: y7,4 + y8,4 <= 1
b7b8b5: y7,5 + y8,5 <= 1
b7b8b6: y7,6 + y8,6 <= 1
b7b8b7: y7,7 + y8,7 <= 1
b7b8b8: y7,8 + y8,8 <= 1
b7b8b9: y7,9 + y8,9 <= 1
b7b8b10: y7,10 + y8,10 <= 1
b7b8b11: y7,11 + y8,11 <= 1
b7b8b12: y7,12 + y8,12 <= 1
b7b8b13: y7,13 + y8,13 <= 1
b7b8b14: y7,14 + y8,14 <= 1
b7b8b15: y7,15 + y8,15 <= 1
b7b8b16: y7,16 + y8,16 <= 1
b7b10b1: y7,1 + y10,1 <= 1
b7b10b2: y7,2 + y10,2 <= 1
b7b10b3: y7,3 + y10,3 <= 1
b7b10b4: y7,4 + y10,4 <= 1
b7b10b5: y7,5 + y10,5 <= 1
b7b10b6: y7,6 + y10,6 <= 1
b7b10b7: y7,7 + y10,7 <= 1
b7b10b8: y7,8 + y10,8 <= 1
b7b10b9: y7,9 + y10,9 <= 1
b7b10b10: y7,10 + y10,10 <= 1
b7b10b11: y7,11 + y10,11 <= 1
b7b10b12: y7,12 + y10,12 <= 1
b7b10b13: y7,13 + y10,13 <= 1
b7b10b14: y7,14 + y10,14 <= 1
b7b10b15: y7,15 + y10,15 <= 1
b7b10b16: y7,16 + y10,16 <= 1
b7b11b1: y7,1 + y11,1 <= 1
b7b11b2: y7,2 + y11,2 <= 1
b7b11b3: y7,3 + y11,3 <= 1
b7b11b4: y7,4 + y11,4 <= 1
b7b11b5: y7,5 + y11,5 <= 1
b7b11b6: y7,6 + y11,6 <= 1
b7b11b7: y7,7 + y11,7 <= 1
b7b11b8: y7,8 + y11,8 <= 1
b7b11b9: y7,9 + y11,9 <= 1
b7b11b10: y7,10 + y11,10 <= 1
b7b11b11: y7,11 + y11,11 <= 1
b7b11b12: y7,12 + y11,12 <= 1
b7b11b13: y7,13 + y11,13 <= 1
b7b11b14: y7,14 + y11,14 <= 1
b7b11b15: y7,15 + y11,15 <= 1
b7b11b16: y7,16 + y11,16 <= 1
b7b12b1: y7,1 + y12,1 <= 1
b7b12b2: y7,2 + y12,2 <= 1
b7b12b3: y7,3 + y12,3 <= 1
b7b12b4: y7,4 + y12,4 <= 1
b7b12b5: y7,5 + y12,5 <= 1
b7b12b6: y7,6 + y12,6 <= 1
b7b12b7: y7,7 + y12,7 <= 1
b7b12b8: y7,8 + y12,8 <= 1
b7b12b9: y7,9 + y12,9 <= 1
b7b12b10: y7,10 + y12,10 <= 1
b7b12b11: y7,11 + y12,11 <= 1
b7b12b12: y7,12 + y12,12 <= 1
b7b12b13: y7,13 + y12,13 <= 1
b7b12b14: y7,14 + y12,14 <= 1
b7b12b15: y7,15 + y12,15 <= 1
b7b12b16: y7,16 + y12,16 <= 1
b8b4b1: y8,1 + y4,1 <= 1
b8b4b2: y8,2 + y4,2 <= 1
b8b4b3: y8,3 + y4,3 <= 1
b8b4b4: y8,4 + y4,4 <= 1
b8b4b5: y8,5 + y4,5 <= 1
b8b4b6: y8,6 + y4,6 <= 1
b8b4b7: y8,7 + y4,7 <= 1
b8b4b8: y8,8 + y4,8 <= 1
b8b4b9: y8,9 + y4,9 <= 1
b8b4b10: y8,10 + y4,10 <= 1
b8b4b11: y8,11 + y4,11 <= 1
b8b4b12: y8,12 + y4,12 <= 1
b8b4b13: y8,13 + y4,13 <= 1
b8b4b14: y8,14 + y4,14 <= 1
b8b4b15: y8,15 + y4,15 <= 1
b8b4b16: y8,16 + y4,16 <= 1
b8b7b1: y8,1 + y7,1 <= 1
b8b7b2: y8,2 + y7,2 <= 1
b8b7b3: y8,3 + y7,3 <= 1
b8b7b4: y8,4 + y7,4 <= 1
b8b7b5: y8,5 + y7,5 <= 1
b8b7b6: y8,6 + y7,6 <= 1
b8b7b7: y8,7 + y7,7 <= 1
b8b7b8: y8,8 + y7,8 <= 1
b8b7b9: y8,9 + y7,9 <= 1
b8b7b10: y8,10 + y7,10 <= 1
b8b7b11: y8,11 + y7,11 <= 1
b8b7b12: y8,12 + y7,12 <= 1
b8b7b13: y8,13 + y7,13 <= 1
b8b7b14: y8,14 + y7,14 <= 1
b8b7b15: y8,15 + y7,15 <= 1
b8b7b16: y8,16 + y7,16 <= 1
b8b9b1: y8,1 + y9,1 <= 1
b8b9b2: y8,2 + y9,2 <= 1
b8b9b3: y8,3 + y9,3 <= 1
b8b9b4: y8,4 + y9,4 <= 1
b8b9b5: y8,5 + y9,5 <= 1
b8b9b6: y8,6 + y9,6 <= 1
b8b9b7: y8,7 + y9,7 <= 1
b8b9b8: y8,8 + y9,8 <= 1
b8b9b9: y8,9 + y9,9 <= 1
b8b9b10: y8,10 + y9,10 <= 1
b8b9b11: y8,11 + y9,11 <= 1
b8b9b12: y8,12 + y9,12 <= 1
b8b9b13: y8,13 + y9,13 <= 1
b8b9b14: y8,14 + y9,14 <= 1
b8b9b15: y8,15 + y9,15 <= 1
b8b9b16: y8,16 + y9,16 <= 1
b8b10b1: y8,1 + y10,1 <= 1
b8b10b2: y8,2 + y10,2 <= 1
b8b10b3: y8,3 + y10,3 <= 1
b8b10b4: y8,4 + y10,4 <= 1
b8b10b5: y8,5 + y10,5 <= 1
b8b10b6: y8,6 + y10,6 <= 1
b8b10b7: y8,7 + y10,7 <= 1
b8b10b8: y8,8 + y10,8 <= 1
b8b10b9: y8,9 + y10,9 <= 1
b8b10b10: y8,10 + y10,10 <= 1
b8b10b11: y8,11 + y10,11 <= 1
b8b10b12: y8,12 + y10,12 <= 1
b8b10b13: y8,13 + y10,13 <= 1
b8b10b14: y8,14 + y10,14 <= 1
b8b10b15: y8,15 + y10,15 <= 1
b8b10b16: y8,16 + y10,16 <= 1
b8b11b1: y8,1 + y11,1 <= 1
b8b11b2: y8,2 + y11,2 <= 1
b8b11b3: y8,3 + y11,3 <= 1
b8b11b4: y8,4 + y11,4 <= 1
b8b11b5: y8,5 + y11,5 <= 1
b8b11b6: y8,6 + y11,6 <= 1
b8b11b7: y8,7 + y11,7 <= 1
b8b11b8: y8,8 + y11,8 <= 1
b8b11b9: y8,9 + y11,9 <= 1
b8b11b10: y8,10 + y11,10 <= 1
b8b11b11: y8,11 + y11,11 <= 1
b8b11b12: y8,12 + y11,12 <= 1
b8b11b13: y8,13 + y11,13 <= 1
b8b11b14: y8,14 + y11,14 <= 1
b8b11b15: y8,15 + y11,15 <= 1
b8b11b16: y8,16 + y11,16 <= 1
b8b12b1: y8,1 + y12,1 <= 1
b8b12b2: y8,2 + y12,2 <= 1
b8b12b3: y8,3 + y12,3 <= 1
b8b12b4: y8,4 + y12,4 <= 1
b8b12b5: y8,5 + y12,5 <= 1
b8b12b6: y8,6 + y12,6 <= 1
b8b12b7: y8,7 + y12,7 <= 1
b8b12b8: y8,8 + y12,8 <= 1
b8b12b9: y8,9 + y12,9 <= 1
b8b12b10: y8,10 + y12,10 <= 1
b8b12b11: y8,11 + y12,11 <= 1
b8b12b12: y8,12 + y12,12 <= 1
b8b12b13: y8,13 + y12,13 <= 1
b8b12b14: y8,14 + y12,14 <= 1
b8b12b15: y8,15 + y12,15 <= 1
b8b12b16: y8,16 + y12,16 <= 1
b9b4b1: y9,1 + y4,1 <= 1
b9b4b2: y9,2 + y4,2 <= 1
b9b4b3: y9,3 + y4,3 <= 1
b9b4b4: y9,4 + y4,4 <= 1
b9b4b5: y9,5 + y4,5 <= 1
b9b4b6: y9,6 + y4,6 <= 1
b9b4b7: y9,7 + y4,7 <= 1
b9b4b8: y9,8 + y4,8 <= 1
b9b4b9: y9,9 + y4,9 <= 1
b9b4b10: y9,10 + y4,10 <= 1
b9b4b11: y9,11 + y4,11 <= 1
b9b4b12: y9,12 + y4,12 <= 1
b9b4b13: y9,13 + y4,13 <= 1
b9b4b14: y9,14 + y4,14 <= 1
b9b4b15: y9,15 + y4,15 <= 1
b9b4b16: y9,16 + y4,16 <= 1
b9b5b1: y9,1 + y5,1 <= 1
b9b5b2: y9,2 + y5,2 <= 1
b9b5b3: y9,3 + y5,3 <= 1
b9b5b4: y9,4 + y5,4 <= 1
b9b5b5: y9,5 + y5,5 <= 1
b9b5b6: y9,6 + y5,6 <= 1
b9b5b7: y9,7 + y5,7 <= 1
b9b5b8: y9,8 + y5,8 <= 1
b9b5b9: y9,9 + y5,9 <= 1
b9b5b10: y9,10 + y5,10 <= 1
b9b5b11: y9,11 + y5,11 <= 1
b9b5b12: y9,12 + y5,12 <= 1
b9b5b13: y9,13 + y5,13 <= 1
b9b5b14: y9,14 + y5,14 <= 1
b9b5b15: y9,15 + y5,15 <= 1
b9b5b16: y9,16 + y5,16 <= 1
b9b8b1: y9,1 + y8,1 <= 1
b9b8b2: y9,2 + y8,2 <= 1
b9b8b3: y9,3 + y8,3 <= 1
b9b8b4: y9,4 + y8,4 <= 1
b9b8b5: y9,5 + y8,5 <= 1
b9b8b6: y9,6 + y8,6 <= 1
b9b8b7: y9,7 + y8,7 <= 1
b9b8b8: y9,8 + y8,8 <= 1
b9b8b9: y9,9 + y8,9 <= 1
b9b8b10: y9,10 + y8,10 <= 1
b9b8b11: y9,11 + y8,11 <= 1
b9b8b12: y9,12 + y8,12 <= 1
b9b8b13: y9,13 + y8,13 <= 1
b9b8b14: y9,14 + y8,14 <= 1
b9b8b15: y9,15 + y8,15 <= 1
b9b8b16: y9,16 + y8,16 <= 1
b10b4b1: y10,1 + y4,1 <= 1
b10b4b2: y10,2 + y4,2 <= 1
b10b4b3: y10,3 + y4,3 <= 1
b10b4b4: y10,4 + y4,4 <= 1
b10b4b5: y10,5 + y4,5 <= 1
b10b4b6: y10,6 + y4,6 <= 1
b10b4b7: y10,7 + y4,7 <= 1
b10b4b8: y10,8 + y4,8 <= 1
b10b4b9: y10,9 + y4,9 <= 1
b10b4b10: y10,10 + y4,10 <= 1
b10b4b11: y10,11 + y4,11 <= 1
b10b4b12: y10,12 + y4,12 <= 1
b10b4b13: y10,13 + y4,13 <= 1
b10b4b14: y10,14 + y4,14 <= 1
b10b4b15: y10,15 + y4,15 <= 1
b10b4b16: y10,16 + y4,16 <= 1
b10b7b1: y10,1 + y7,1 <= 1
b10b7b2: y10,2 + y7,2 <= 1
b10b7b3: y10,3 + y7,3 <= 1
b10b7b4: y10,4 + y7,4 <= 1
b10b7b5: y10,5 + y7,5 <= 1
b10b7b6: y10,6 + y7,6 <= 1
b10b7b7: y10,7 + y7,7 <= 1
b10b7b8: y10,8 + y7,8 <= 1
b10b7b9: y10,9 + y7,9 <= 1
b10b7b10: y10,10 + y7,10 <= 1
b10b7b11: y10,11 + y7,11 <= 1
b10b7b12: y10,12 + y7,12 <= 1
b10b7b13: y10,13 + y7,13 <= 1
b10b7b14: y10,14 + y7,14 <= 1
b10b7b15: y10,15 + y7,15 <= 1
b10b7b16: y10,16 + y7,16 <= 1
b10b8b1: y10,1 + y8,1 <= 1
b10b8b2: y10,2 + y8,2 <= 1
b10b8b3: y10,3 + y8,3 <= 1
b10b8b4: y10,4 + y8,4 <= 1
b10b8b5: y10,5 + y8,5 <= 1
b10b8b6: y10,6 + y8,6 <= 1
b10b8b7: y10,7 + y8,7 <= 1
b10b8b8: y10,8 + y8,8 <= 1
b10b8b9: y10,9 + y8,9 <= 1
b10b8b10: y10,10 + y8,10 <= 1
b10b8b11: y10,11 + y8,11 <= 1
b10b8b12: y10,12 + y8,12 <= 1
b10b8b13: y10,13 + y8,13 <= 1
b10b8b14: y10,14 + y8,14 <= 1
b10b8b15: y10,15 + y8,15 <= 1
b10b8b16: y10,16 + y8,16 <= 1
b10b11b1: y10,1 + y11,1 <= 1
b10b11b2: y10,2 + y11,2 <= 1
b10b11b3: y10,3 + y11,3 <= 1
b10b11b4: y10,4 + y11,4 <= 1
b10b11b5: y10,5 + y11,5 <= 1
b10b11b6: y10,6 + y11,6 <= 1
b10b11b7: y10,7 + y11,7 <= 1
b10b11b8: y10,8 + y11,8 <= 1
b10b11b9: y10,9 + y11,9 <= 1
b10b11b10: y10,10 + y11,10 <= 1
b10b11b11: y10,11 + y11,11 <= 1
b10b11b12: y10,12 + y11,12 <= 1
b10b11b13: y10,13 + y11,13 <= 1
b10b11b14: y10,14 + y11,14 <= 1
b10b11b15: y10,15 + y11,15 <= 1
b10b11b16: y10,16 + y11,16 <= 1
b11b4b1: y11,1 + y4,1 <= 1
b11b4b2: y11,2 + y4,2 <= 1
b11b4b3: y11,3 + y4,3 <= 1
b11b4b4: y11,4 + y4,4 <= 1
b11b4b5: y11,5 + y4,5 <= 1
b11b4b6: y11,6 + y4,6 <= 1
b11b4b7: y11,7 + y4,7 <= 1
b11b4b8: y11,8 + y4,8 <= 1
b11b4b9: y11,9 + y4,9 <= 1
b11b4b10: y11,10 + y4,10 <= 1
b11b4b11: y11,11 + y4,11 <= 1
b11b4b12: y11,12 + y4,12 <= 1
b11b4b13: y11,13 + y4,13 <= 1
b11b4b14: y11,14 + y4,14 <= 1
b11b4b15: y11,15 + y4,15 <= 1
b11b4b16: y11,16 + y4,16 <= 1
b11b7b1: y11,1 + y7,1 <= 1
b11b7b2: y11,2 + y7,2 <= 1
b11b7b3: y11,3 + y7,3 <= 1
b11b7b4: y11,4 + y7,4 <= 1
b11b7b5: y11,5 + y7,5 <= 1
b11b7b6: y11,6 + y7,6 <= 1
b11b7b7: y11,7 + y7,7 <= 1
b11b7b8: y11,8 + y7,8 <= 1
b11b7b9: y11,9 + y7,9 <= 1
b11b7b10: y11,10 + y7,10 <= 1
b11b7b11: y11,11 + y7,11 <= 1
b11b7b12: y11,12 + y7,12 <= 1
b11b7b13: y11,13 + y7,13 <= 1
b11b7b14: y11,14 + y7,14 <= 1
b11b7b15: y11,15 + y7,15 <= 1
b11b7b16: y11,16 + y7,16 <= 1
b11b8b1: y11,1 + y8,1 <= 1
b11b8b2: y11,2 + y8,2 <= 1
b11b8b3: y11,3 + y8,3 <= 1
b11b8b4: y11,4 + y8,4 <= 1
b11b8b5: y11,5 + y8,5 <= 1
b11b8b6: y11,6 + y8,6 <= 1
b11b8b7: y11,7 + y8,7 <= 1
b11b8b8: y11,8 + y8,8 <= 1
b11b8b9: y11,9 + y8,9 <= 1
b11b8b10: y11,10 + y8,10 <= 1
b11b8b11: y11,11 + y8,11 <= 1
b11b8b12: y11,12 + y8,12 <= 1
b11b8b13: y11,13 + y8,13 <= 1
b11b8b14: y11,14 + y8,14 <= 1
b11b8b15: y11,15 + y8,15 <= 1
b11b8b16: y11,16 + y8,16 <= 1
b11b10b1: y11,1 + y10,1 <= 1
b11b10b2: y11,2 + y10,2 <= 1
b11b10b3: y11,3 + y10,3 <= 1
b11b10b4: y11,4 + y10,4 <= 1
b11b10b5: y11,5 + y10,5 <= 1
b11b10b6: y11,6 + y10,6 <= 1
b11b10b7: y11,7 + y10,7 <= 1
b11b10b8: y11,8 + y10,8 <= 1
b11b10b9: y11,9 + y10,9 <= 1
b11b10b10: y11,10 + y10,10 <= 1
b11b10b11: y11,11 + y10,11 <= 1
b11b10b12: y11,12 + y10,12 <= 1
b11b10b13: y11,13 + y10,13 <= 1
b11b10b14: y11,14 + y10,14 <= 1
b11b10b15: y11,15 + y10,15 <= 1
b11b10b16: y11,16 + y10,16 <= 1
b11b12b1: y11,1 + y12,1 <= 1
b11b12b2: y11,2 + y12,2 <= 1
b11b12b3: y11,3 + y12,3 <= 1
b11b12b4: y11,4 + y12,4 <= 1
b11b12b5: y11,5 + y12,5 <= 1
b11b12b6: y11,6 + y12,6 <= 1
b11b12b7: y11,7 + y12,7 <= 1
b11b12b8: y11,8 + y12,8 <= 1
b11b12b9: y11,9 + y12,9 <= 1
b11b12b10: y11,10 + y12,10 <= 1
b11b12b11: y11,11 + y12,11 <= 1
b11b12b12: y11,12 + y12,12 <= 1
b11b12b13: y11,13 + y12,13 <= 1
b11b12b14: y11,14 + y12,14 <= 1
b11b12b15: y11,15 + y12,15 <= 1
b11b12b16: y11,16 + y12,16 <= 1
b12b2b1: y12,1 + y2,1 <= 1
b12b2b2: y12,2 + y2,2 <= 1
b12b2b3: y12,3 + y2,3 <= 1
b12b2b4: y12,4 + y2,4 <= 1
b12b2b5: y12,5 + y2,5 <= 1
b12b2b6: y12,6 + y2,6 <= 1
b12b2b7: y12,7 + y2,7 <= 1
b12b2b8: y12,8 + y2,8 <= 1
b12b2b9: y12,9 + y2,9 <= 1
b12b2b10: y12,10 + y2,10 <= 1
b12b2b11: y12,11 + y2,11 <= 1
b12b2b12: y12,12 + y2,12 <= 1
b12b2b13: y12,13 + y2,13 <= 1
b12b2b14: y12,14 + y2,14 <= 1
b12b2b15: y12,15 + y2,15 <= 1
b12b2b16: y12,16 + y2,16 <= 1
b12b3b1: y12,1 + y3,1 <= 1
b12b3b2: y12,2 + y3,2 <= 1
b12b3b3: y12,3 + y3,3 <= 1
b12b3b4: y12,4 + y3,4 <= 1
b12b3b5: y12,5 + y3,5 <= 1
b12b3b6: y12,6 + y3,6 <= 1
b12b3b7: y12,7 + y3,7 <= 1
b12b3b8: y12,8 + y3,8 <= 1
b12b3b9: y12,9 + y3,9 <= 1
b12b3b10: y12,10 + y3,10 <= 1
b12b3b11: y12,11 + y3,11 <= 1
b12b3b12: y12,12 + y3,12 <= 1
b12b3b13: y12,13 + y3,13 <= 1
b12b3b14: y12,14 + y3,14 <= 1
b12b3b15: y12,15 + y3,15 <= 1
b12b3b16: y12,16 + y3,16 <= 1
b12b7b1: y12,1 + y7,1 <= 1
b12b7b2: y12,2 + y7,2 <= 1
b12b7b3: y12,3 + y7,3 <= 1
b12b7b4: y12,4 + y7,4 <= 1
b12b7b5: y12,5 + y7,5 <= 1
b12b7b6: y12,6 + y7,6 <= 1
b12b7b7: y12,7 + y7,7 <= 1
b12b7b8: y12,8 + y7,8 <= 1
b12b7b9: y12,9 + y7,9 <= 1
b12b7b10: y12,10 + y7,10 <= 1
b12b7b11: y12,11 + y7,11 <= 1
b12b7b12: y12,12 + y7,12 <= 1
b12b7b13: y12,13 + y7,13 <= 1
b12b7b14: y12,14 + y7,14 <= 1
b12b7b15: y12,15 + y7,15 <= 1
b12b7b16: y12,16 + y7,16 <= 1
b12b8b1: y12,1 + y8,1 <= 1
b12b8b2: y12,2 + y8,2 <= 1
b12b8b3: y12,3 + y8,3 <= 1
b12b8b4: y12,4 + y8,4 <= 1
b12b8b5: y12,5 + y8,5 <= 1
b12b8b6: y12,6 + y8,6 <= 1
b12b8b7: y12,7 + y8,7 <= 1
b12b8b8: y12,8 + y8,8 <= 1
b12b8b9: y12,9 + y8,9 <= 1
b12b8b10: y12,10 + y8,10 <= 1
b12b8b11: y12,11 + y8,11 <= 1
b12b8b12: y12,12 + y8,12 <= 1
b12b8b13: y12,13 + y8,13 <= 1
b12b8b14: y12,14 + y8,14 <= 1
b12b8b15: y12,15 + y8,15 <= 1
b12b8b16: y12,16 + y8,16 <= 1
b12b11b1: y12,1 + y11,1 <= 1
b12b11b2: y12,2 + y11,2 <= 1
b12b11b3: y12,3 + y11,3 <= 1
b12b11b4: y12,4 + y11,4 <= 1
b12b11b5: y12,5 + y11,5 <= 1
b12b11b6: y12,6 + y11,6 <= 1
b12b11b7: y12,7 + y11,7 <= 1
b12b11b8: y12,8 + y11,8 <= 1
b12b11b9: y12,9 + y11,9 <= 1
b12b11b10: y12,10 + y11,10 <= 1
b12b11b11: y12,11 + y11,11 <= 1
b12b11b12: y12,12 + y11,12 <= 1
b12b11b13: y12,13 + y11,13 <= 1
b12b11b14: y12,14 + y11,14 <= 1
b12b11b15: y12,15 + y11,15 <= 1
b12b11b16: y12,16 + y11,16 <= 1
c1: y1,1 + y1,2 + y1,3 + y1,4 + y1,5 + y1,6 + y1,7 + y1,8 + y1,9 + y1,10 + y1,11 + y1,12 + y1,13 + y1,14 + y1,15 + y1,16 = 1
c2: y2,1 + y2,2 + y2,3 + y2,4 + y2,5 + y2,6 + y2,7 + y2,8 + y2,9 + y2,10 + y2,11 + y2,12 + y2,13 + y2,14 + y2,15 + y2,16 = 1
c3: y3,1 + y3,2 + y3,3 + y3,4 + y3,5 + y3,6 + y3,7 + y3,8 + y3,9 + y3,10 + y3,11 + y3,12 + y3,13 + y3,14 + y3,15 + y3,16 = 1
c4: y4,1 + y4,2 + y4,3 + y4,4 + y4,5 + y4,6 + y4,7 + y4,8 + y4,9 + y4,10 + y4,11 + y4,12 + y4,13 + y4,14 + y4,15 + y4,16 = 1
c5: y5,1 + y5,2 + y5,3 + y5,4 + y5,5 + y5,6 + y5,7 + y5,8 + y5,9 + y5,10 + y5,11 + y5,12 + y5,13 + y5,14 + y5,15 + y5,16 = 1
c6: y6,1 + y6,2 + y6,3 + y6,4 + y6,5 + y6,6 + y6,7 + y6,8 + y6,9 + y6,10 + y6,11 + y6,12 + y6,13 + y6,14 + y6,15 + y6,16 = 1
c7: y7,1 + y7,2 + y7,3 + y7,4 + y7,5 + y7,6 + y7,7 + y7,8 + y7,9 + y7,10 + y7,11 + y7,12 + y7,13 + y7,14 + y7,15 + y7,16 = 1
c8: y8,1 + y8,2 + y8,3 + y8,4 + y8,5 + y8,6 + y8,7 + y8,8 + y8,9 + y8,10 + y8,11 + y8,12 + y8,13 + y8,14 + y8,15 + y8,16 = 1
c9: y9,1 + y9,2 + y9,3 + y9,4 + y9,5 + y9,6 + y9,7 + y9,8 + y9,9 + y9,10 + y9,11 + y9,12 + y9,13 + y9,14 + y9,15 + y9,16 = 1
c10: y10,1 + y10,2 + y10,3 + y10,4 + y10,5 + y10,6 + y10,7 + y10,8 + y10,9 + y10,10 + y10,11 + y10,12 + y10,13 + y10,14 + y10,15 + y10,16 = 1
c11: y11,1 + y11,2 + y11,3 + y11,4 + y11,5 + y11,6 + y11,7 + y11,8 + y11,9 + y11,10 + y11,11 + y11,12 + y11,13 + y11,14 + y11,15 + y11,16 = 1
c12: y12,1 + y12,2 + y12,3 + y12,4 + y12,5 + y12,6 + y12,7 + y12,8 + y12,9 + y12,10 + y12,11 + y12,12 + y12,13 + y12,14 + y12,15 + y12,16 = 1
d1: y1,1 + y2,1 + y3,1 + y4,1 + y5,1 + y6,1 + y7,1 + y8,1 + y9,1 + y10,1 + y11,1 + y12,1 <= 8
d2: y1,2 + y2,2 + y3,2 + y4,2 + y5,2 + y6,2 + y7,2 + y8,2 + y9,2 + y10,2 + y11,2 + y12,2 <= 10
d3: y1,3 + y2,3 + y3,3 + y4,3 + y5,3 + y6,3 + y7,3 + y8,3 + y9,3 + y10,3 + y11,3 + y12,3 <= 5
d4: y1,4 + y2,4 + y3,4 + y4,4 + y5,4 + y6,4 + y7,4 + y8,4 + y9,4 + y10,4 + y11,4 + y12,4 <= 6
d5: y1,5 + y2,5 + y3,5 + y4,5 + y5,5 + y6,5 + y7,5 + y8,5 + y9,5 + y10,5 + y11,5 + y12,5 <= 5
d6: y1,6 + y2,6 + y3,6 + y4,6 + y5,6 + y6,6 + y7,6 + y8,6 + y9,6 + y10,6 + y11,6 + y12,6 <= 8
d7: y1,7 + y2,7 + y3,7 + y4,7 + y5,7 + y6,7 + y7,7 + y8,7 + y9,7 + y10,7 + y11,7 + y12,7 <= 9
d8: y1,8 + y2,8 + y3,8 + y4,8 + y5,8 + y6,8 + y7,8 + y8,8 + y9,8 + y10,8 + y11,8 + y12,8 <= 3
d9: y1,9 + y2,9 + y3,9 + y4,9 + y5,9 + y6,9 + y7,9 + y8,9 + y9,9 + y10,9 + y11,9 + y12,9 <= 9
d10: y1,10 + y2,10 + y3,10 + y4,10 + y5,10 + y6,10 + y7,10 + y8,10 + y9,10 + y10,10 + y11,10 + y12,10 <= 6
d11: y1,11 + y2,11 + y3,11 + y4,11 + y5,11 + y6,11 + y7,11 + y8,11 + y9,11 + y10,11 + y11,11 + y12,11 <= 4
d12: y1,12 + y2,12 + y3,12 + y4,12 + y5,12 + y6,12 + y7,12 + y8,12 + y9,12 + y10,12 + y11,12 + y12,12 <= 5
d13: y1,13 + y2,13 + y3,13 + y4,13 + y5,13 + y6,13 + y7,13 + y8,13 + y9,13 + y10,13 + y11,13 + y12,13 <= 3
d14: y1,14 + y2,14 + y3,14 + y4,14 + y5,14 + y6,14 + y7,14 + y8,14 + y9,14 + y10,14 + y11,14 + y12,14 <= 3
d15: y1,15 + y2,15 + y3,15 + y4,15 + y5,15 + y6,15 + y7,15 + y8,15 + y9,15 + y10,15 + y11,15 + y12,15 <= 4
d16: y1,16 + y2,16 + y3,16 + y4,16 + y5,16 + y6,16 + y7,16 + y8,16 + y9,16 + y10,16 + y11,16 + y12,16 <= 9
Binaries
x1
x2
x3
x4
x5
x6
x7
x8
x9
x10
x11
x12
x13
x14
x15
x16
y1,1
y1,2
y1,3
y1,4
y1,5
y1,6
y1,7
y1,8
y1,9
y1,10
y1,11
y1,12
y2,1
y2,2
y2,3
y2,4
y2,5
y2,6
y2,7
y2,8
y2,9
y2,10
y2,11
y2,12
y3,1
y3,2
y3,3
y3,4
y3,5
y3,6
y3,7
y3,8
y3,9
y3,10
y3,11
y3,12
y4,1
y4,2
y4,3
y4,4
y4,5
y4,6
y4,7
y4,8
y4,9
y4,10
y4,11
y4,12
y5,1
y5,2
y5,3
y5,4
y5,5
y5,6
y5,7
y5,8
y5,9
y5,10
y5,11
y5,12
y6,1
y6,2
y6,3
y6,4
y6,5
y6,6
y6,7
y6,8
y6,9
y6,10
y6,11
y6,12
y7,1
y7,2
y7,3
y7,4
y7,5
y7,6
y7,7
y7,8
y7,9
y7,10
y7,11
y7,12
y8,1
y8,2
y8,3
y8,4
y8,5
y8,6
y8,7
y8,8
y8,9
y8,10
y8,11
y8,12
y9,1
y9,2
y9,3
y9,4
y9,5
y9,6
y9,7
y9,8
y9,9
y9,10
y9,11
y9,12
y10,1
y10,2
y10,3
y10,4
y10,5
y10,6
y10,7
y10,8
y10,9
y10,10
y10,11
y10,12
y11,1
y11,2
y11,3
y11,4
y11,5
y11,6
y11,7
y11,8
y11,9
y11,10
y11,11
y11,12
y12,1
y12,2
y12,3
y12,4
y12,5
y12,6
y12,7
y12,8
y12,9
y12,10
y12,11
y12,12
y13,1
y13,2
y13,3
y13,4
y13,5
y13,6
y13,7
y13,8
y13,9
y13,10
y13,11
y13,12
y14,1
y14,2
y14,3
y14,4
y14,5
y14,6
y14,7
y14,8
y14,9
y14,10
y14,11
y14,12
y15,1
y15,2
y15,3
y15,4
y15,5
y15,6
y15,7
y15,8
y15,9
y15,10
y15,11
y15,12
y16,1
y16,2
y16,3
y16,4
y16,5
y16,6
y16,7
y16,8
y16,9
y16,10
y16,11
y16,12
End