instances/small/instance12_16.txt
16 12
64 8
70 10
25 5
42 6
40 5
48 8
54 9
21 3
72 9
30 6
20 4
35 5
27 3
18 3
28 4
72 9
1 5
2 3 11
2 3 11
4 7 8 9 10
1 8
0
4 7 9 10 11
4 8 9 10 11
0
1 10
1 11
0
